data/MCDM/NO_CORR/GEN_FROM_60/15_ITEMS_1000_GEN/K5015W17.KNP.mps
NAME          BLANK   
ROWS
 N  OBJROW
 L  R0000000
COLUMNS
    C0000000  OBJROW     -550.         R0000000  959.        
    C0000001  OBJROW     -909.         R0000000  839.        
    C0000002  OBJROW     -500.         R0000000  940.        
    C0000003  OBJROW     -38.          R0000000  447.        
    C0000004  OBJROW     -541.         R0000000  59.         
    C0000005  OBJROW     -974.         R0000000  496.        
    C0000006  OBJROW     -643.         R0000000  35.         
    C0000007  OBJROW     -543.         R0000000  51.         
    C0000008  OBJROW     -969.         R0000000  845.        
    C0000009  OBJROW     -304.         R0000000  895.        
    C0000010  OBJROW     -397.         R0000000  304.        
    C0000011  OBJROW     -414.         R0000000  411.        
    C0000012  OBJROW     -139.         R0000000  480.        
    C0000013  OBJROW     -874.         R0000000  521.        
    C0000014  OBJROW     -936.         R0000000  738.        
RHS
    RHS       R0000000  13735.      
BOUNDS
 BV BOUND     C0000000  1.          
 BV BOUND     C0000001  1.          
 BV BOUND     C0000002  1.          
 BV BOUND     C0000003  1.          
 BV BOUND     C0000004  1.          
 BV BOUND     C0000005  1.          
 BV BOUND     C0000006  1.          
 BV BOUND     C0000007  1.          
 BV BOUND     C0000008  1.          
 BV BOUND     C0000009  1.          
 BV BOUND     C0000010  1.          
 BV BOUND     C0000011  1.          
 BV BOUND     C0000012  1.          
 BV BOUND     C0000013  1.          
 BV BOUND     C0000014  1.          
ENDATA
