interdiction/MCDM/NO_CORR/GEN_FROM_60/15_ITEMS_1000_GEN/K5015W17.KNP.txt
N 15
M 16
LC 15
LC 16
LC 17
LC 18
LC 19
LC 20
LC 21
LC 22
LC 23
LC 24
LC 25
LC 26
LC 27
LC 28
LC 29
LR 1
LR 2
LR 3
LR 4
LR 5
LR 6
LR 7
LR 8
LR 9
LR 10
LR 11
LR 12
LR 13
LR 14
LR 15
LR 16
LO -550
LO -909
LO -500
LO -38
LO -541
LO -974
LO -643
LO -543
LO -969
LO -304
LO -397
LO -414
LO -139
LO -874
LO -936
OS 1
IC 620
IC 133
IC 142
IC 91
IC 633
IC 250
IC 231
IC 552
IC 968
IC 8
IC 539
IC 918
IC 149
IC 556
IC 435
IB 3113
